(set-logic QF_BV)
(declare-fun _substvar_95_ () (_ BitVec 95))
(declare-fun _substvar_148_ () Bool)
(declare-fun _substvar_87_ () (_ BitVec 95))
(declare-fun _substvar_61_ () (_ BitVec 95))
(declare-fun _substvar_81_ () (_ BitVec 95))
(assert (and true true true true true true true true true true true true true true true true true true true true true true true true true true true true true true true true true true true true true true true true true true true true true true true true true true true true true true true true true true true true true true true true true true true true true true true true true true true true true true true true true true true true true true true true true true true true (= _substvar_95_ (_ bv0 95)) (ite _substvar_148_ (= _substvar_81_ (_ bv0 95)) (= _substvar_81_ (concat (_ bv0 94) (bvxor (_ bv0 1) ((_ extract 83 83) _substvar_95_))))) (= _substvar_87_ (concat ((_ extract 93 0) _substvar_81_) (bvxor ((_ extract 94 94) _substvar_81_) ((_ extract 83 83) _substvar_81_)))) (= _substvar_61_ (concat ((_ extract 93 0) _substvar_87_) (_ bv0 1))) true true true (= (= (_ bv0 95) _substvar_61_) false)))
(check-sat)
(exit)
